problems/csplib-prob015/SchursLemma-models/noch/O2/lingeling/model_1_4-6-16-solution000001.eprime-solution
language ESSENCE' 1.0

letting boxes_PartitionOccurrence_FirstIndex be [1, 3, 5, 6, 7, 8; int(1..6)]
letting boxes_PartitionOccurrence_NumParts be 6
letting boxes_PartitionOccurrence_PartSizes be [3, 3, 1, 3, 1, 5; int(1..6)]
letting boxes_PartitionOccurrence_WhichPart be [1, 1, 2, 1, 3, 4, 5, 6, 2, 4, 6, 4, 2, 6, 6, 6; int(1..16)]
