problems/csplib-prob015/SchursLemma-models/noch/O2/lingeling/model_1_4-6-16-solution000001.solution
language Essence 1.3

letting boxes be partition({1, 2, 4}, {3, 9, 13}, {5}, {6, 10, 12}, {7}, {8, 11, 14, 15, 16})
